    pair_coeff 1 1 0.066 3.5 
    pair_coeff 2 2 0.066 3.5 
    pair_coeff 3 3 0.066 3.5 
    pair_coeff 4 4 0.066 3.5 
    pair_coeff 5 5 0.03 2.5 
    pair_coeff 6 6 0.076 3.55 
    pair_coeff 7 7 0.07 3.55 
    pair_coeff 8 8 0.03 2.42 
    pair_coeff 9 9 0.07 3.55 
    pair_coeff 10 10 0.066 3.5 
    pair_coeff 11 11 0.07 3.55 
    pair_coeff 12 12 0.17 3.07 
    pair_coeff 13 13 0.0 0.0 
    pair_coeff 14 14 0.14 2.9 
    pair_coeff 15 15 0.066 3.5 
    pair_coeff 16 16 0.066 3.5 
    pair_coeff 17 17 0.03 2.5 
    pair_coeff 18 18 0.25 3.55 
    pair_coeff 19 19 0.066 3.5 
    pair_coeff 20 20 0.14 2.9 
    pair_coeff 21 21 0.03 2.42 
    pair_coeff 22 22 0.17 3.25 
    pair_coeff 23 23 0.07 3.55 
    pair_coeff 24 24 0.07 3.55 
    pair_coeff 25 25 0.07 3.55 
    pair_coeff 26 26 0.07 3.55 
    pair_coeff 27 27 0.07 3.55 
    pair_coeff 28 28 0.07 3.55 
    pair_coeff 29 29 0.07 3.55 
    pair_coeff 30 30 0.07 3.55 
    pair_coeff 31 31 0.0 0.0 
    pair_coeff 32 32 0.03 2.42 
    pair_coeff 33 33 0.03 2.42 
    pair_coeff 34 34 0.03 2.42 
    pair_coeff 35 35 0.03 2.42 
    pair_coeff 36 36 0.03 2.42 
    pair_coeff 37 37 0.03 2.42 
    pair_coeff 38 38 0.25 3.55 
    bond_coeff 1 harmonic 553.0 0.945
    bond_coeff 2 harmonic 320.0 1.41
    bond_coeff 3 harmonic 320.0 1.41
    bond_coeff 4 harmonic 320.0 1.41
    bond_coeff 5 harmonic 320.0 1.41
    bond_coeff 6 harmonic 320.0 1.41
    bond_coeff 7 harmonic 320.0 1.41
    bond_coeff 8 harmonic 320.0 1.41
    bond_coeff 9 harmonic 320.0 1.41
    bond_coeff 10 harmonic 250.0 1.47
    bond_coeff 11 harmonic 250.0 1.47
    bond_coeff 12 harmonic 450.0 1.37
    bond_coeff 13 harmonic 450.0 1.364
    bond_coeff 14 harmonic 450.0 1.364
    bond_coeff 15 harmonic 450.0 1.364
    bond_coeff 16 harmonic 450.0 1.364
    bond_coeff 17 harmonic 450.0 1.364
    bond_coeff 18 harmonic 450.0 1.364
    bond_coeff 19 harmonic 450.0 1.364
    bond_coeff 20 harmonic 553.0 0.945
    bond_coeff 21 harmonic 553.0 0.945
    bond_coeff 22 harmonic 268.0 1.529
    bond_coeff 23 harmonic 268.0 1.529
    bond_coeff 24 harmonic 268.0 1.529
    bond_coeff 25 harmonic 268.0 1.529
    bond_coeff 26 harmonic 268.0 1.529
    bond_coeff 27 harmonic 268.0 1.529
    bond_coeff 28 harmonic 268.0 1.529
    bond_coeff 29 harmonic 268.0 1.529
    bond_coeff 30 harmonic 268.0 1.529
    bond_coeff 31 harmonic 268.0 1.529
    bond_coeff 32 harmonic 268.0 1.529
    bond_coeff 33 harmonic 268.0 1.529
    bond_coeff 34 harmonic 268.0 1.529
    bond_coeff 35 harmonic 268.0 1.529
    bond_coeff 36 harmonic 268.0 1.529
    bond_coeff 37 harmonic 268.0 1.529
    bond_coeff 38 harmonic 268.0 1.529
    bond_coeff 39 harmonic 268.0 1.529
    bond_coeff 40 harmonic 268.0 1.529
    bond_coeff 41 harmonic 268.0 1.529
    bond_coeff 42 harmonic 268.0 1.529
    bond_coeff 43 harmonic 268.0 1.529
    bond_coeff 44 harmonic 268.0 1.529
    bond_coeff 45 harmonic 268.0 1.529
    bond_coeff 46 harmonic 268.0 1.529
    bond_coeff 47 harmonic 268.0 1.529
    bond_coeff 48 harmonic 268.0 1.529
    bond_coeff 49 harmonic 268.0 1.529
    bond_coeff 50 harmonic 268.0 1.529
    bond_coeff 51 harmonic 268.0 1.529
    bond_coeff 52 harmonic 268.0 1.529
    bond_coeff 53 harmonic 268.0 1.529
    bond_coeff 54 harmonic 268.0 1.529
    bond_coeff 55 harmonic 268.0 1.529
    bond_coeff 56 harmonic 268.0 1.529
    bond_coeff 57 harmonic 268.0 1.529
    bond_coeff 58 harmonic 268.0 1.529
    bond_coeff 59 harmonic 268.0 1.529
    bond_coeff 60 harmonic 268.0 1.529
    bond_coeff 61 harmonic 268.0 1.529
    bond_coeff 62 harmonic 268.0 1.529
    bond_coeff 63 harmonic 268.0 1.529
    bond_coeff 64 harmonic 268.0 1.529
    bond_coeff 65 harmonic 268.0 1.529
    bond_coeff 66 harmonic 268.0 1.529
    bond_coeff 67 harmonic 268.0 1.529
    bond_coeff 68 harmonic 268.0 1.529
    bond_coeff 69 harmonic 268.0 1.529
    bond_coeff 70 harmonic 268.0 1.529
    bond_coeff 71 harmonic 268.0 1.529
    bond_coeff 72 harmonic 268.0 1.529
    bond_coeff 73 harmonic 268.0 1.529
    bond_coeff 74 harmonic 268.0 1.529
    bond_coeff 75 harmonic 268.0 1.529
    bond_coeff 76 harmonic 268.0 1.529
    bond_coeff 77 harmonic 268.0 1.529
    bond_coeff 78 harmonic 268.0 1.529
    bond_coeff 79 harmonic 268.0 1.529
    bond_coeff 80 harmonic 268.0 1.529
    bond_coeff 81 harmonic 268.0 1.529
    bond_coeff 82 harmonic 268.0 1.529
    bond_coeff 83 harmonic 268.0 1.529
    bond_coeff 84 harmonic 268.0 1.529
    bond_coeff 85 harmonic 268.0 1.529
    bond_coeff 86 harmonic 222.0 1.81
    bond_coeff 87 harmonic 222.0 1.81
    bond_coeff 88 harmonic 222.0 1.81
    bond_coeff 89 harmonic 222.0 1.81
    bond_coeff 90 harmonic 222.0 1.81
    bond_coeff 91 harmonic 222.0 1.81
    bond_coeff 92 harmonic 222.0 1.81
    bond_coeff 93 harmonic 222.0 1.81
    bond_coeff 94 harmonic 222.0 1.81
    bond_coeff 95 harmonic 222.0 1.81
    bond_coeff 96 harmonic 222.0 1.81
    bond_coeff 97 harmonic 222.0 1.81
    bond_coeff 98 harmonic 222.0 1.81
    bond_coeff 99 harmonic 222.0 1.81
    bond_coeff 100 harmonic 222.0 1.81
    bond_coeff 101 harmonic 222.0 1.81
    bond_coeff 102 harmonic 320.0 1.41
    bond_coeff 103 harmonic 320.0 1.41
    bond_coeff 104 harmonic 320.0 1.41
    bond_coeff 105 harmonic 320.0 1.41
    bond_coeff 106 harmonic 320.0 1.41
    bond_coeff 107 harmonic 320.0 1.41
    bond_coeff 108 harmonic 320.0 1.41
    bond_coeff 109 harmonic 320.0 1.41
    bond_coeff 110 harmonic 320.0 1.41
    bond_coeff 111 harmonic 320.0 1.41
    bond_coeff 112 harmonic 320.0 1.41
    bond_coeff 113 harmonic 320.0 1.41
    bond_coeff 114 harmonic 320.0 1.41
    bond_coeff 115 harmonic 320.0 1.41
    bond_coeff 116 harmonic 320.0 1.41
    bond_coeff 117 harmonic 320.0 1.41
    bond_coeff 118 harmonic 340.0 1.09
    bond_coeff 119 harmonic 340.0 1.09
    bond_coeff 120 harmonic 340.0 1.09
    bond_coeff 121 harmonic 340.0 1.09
    bond_coeff 122 harmonic 340.0 1.09
    bond_coeff 123 harmonic 340.0 1.09
    bond_coeff 124 harmonic 340.0 1.09
    bond_coeff 125 harmonic 340.0 1.09
    bond_coeff 126 harmonic 340.0 1.09
    bond_coeff 127 harmonic 340.0 1.09
    bond_coeff 128 harmonic 340.0 1.09
    bond_coeff 129 harmonic 340.0 1.09
    bond_coeff 130 harmonic 340.0 1.09
    bond_coeff 131 harmonic 340.0 1.09
    bond_coeff 132 harmonic 340.0 1.09
    bond_coeff 133 harmonic 340.0 1.09
    bond_coeff 134 harmonic 317.0 1.51
    bond_coeff 135 harmonic 317.0 1.51
    bond_coeff 136 harmonic 317.0 1.51
    bond_coeff 137 harmonic 317.0 1.51
    bond_coeff 138 harmonic 317.0 1.51
    bond_coeff 139 harmonic 317.0 1.51
    bond_coeff 140 harmonic 317.0 1.51
    bond_coeff 141 harmonic 317.0 1.51
    bond_coeff 142 harmonic 317.0 1.51
    bond_coeff 143 harmonic 317.0 1.51
    bond_coeff 144 harmonic 317.0 1.51
    bond_coeff 145 harmonic 317.0 1.51
    bond_coeff 146 harmonic 317.0 1.51
    bond_coeff 147 harmonic 317.0 1.51
    bond_coeff 148 harmonic 317.0 1.51
    bond_coeff 149 harmonic 317.0 1.51
    bond_coeff 150 harmonic 317.0 1.51
    bond_coeff 151 harmonic 317.0 1.51
    bond_coeff 152 harmonic 317.0 1.51
    bond_coeff 153 harmonic 317.0 1.51
    bond_coeff 154 harmonic 317.0 1.51
    bond_coeff 155 harmonic 317.0 1.51
    bond_coeff 156 harmonic 317.0 1.51
    bond_coeff 157 harmonic 317.0 1.51
    bond_coeff 158 harmonic 317.0 1.51
    bond_coeff 159 harmonic 317.0 1.51
    bond_coeff 160 harmonic 317.0 1.51
    bond_coeff 161 harmonic 317.0 1.51
    bond_coeff 162 harmonic 317.0 1.51
    bond_coeff 163 harmonic 317.0 1.51
    bond_coeff 164 harmonic 317.0 1.51
    bond_coeff 165 harmonic 317.0 1.51
    bond_coeff 166 harmonic 317.0 1.51
    bond_coeff 167 harmonic 317.0 1.51
    bond_coeff 168 harmonic 317.0 1.51
    bond_coeff 169 harmonic 317.0 1.51
    bond_coeff 170 harmonic 317.0 1.51
    bond_coeff 171 harmonic 317.0 1.51
    bond_coeff 172 harmonic 317.0 1.51
    bond_coeff 173 harmonic 317.0 1.51
    bond_coeff 174 harmonic 317.0 1.51
    bond_coeff 175 harmonic 317.0 1.51
    bond_coeff 176 harmonic 317.0 1.51
    bond_coeff 177 harmonic 317.0 1.51
    bond_coeff 178 harmonic 317.0 1.51
    bond_coeff 179 harmonic 317.0 1.51
    bond_coeff 180 harmonic 317.0 1.51
    bond_coeff 181 harmonic 317.0 1.51
    bond_coeff 182 harmonic 317.0 1.51
    bond_coeff 183 harmonic 317.0 1.51
    bond_coeff 184 harmonic 317.0 1.51
    bond_coeff 185 harmonic 317.0 1.51
    bond_coeff 186 harmonic 317.0 1.51
    bond_coeff 187 harmonic 317.0 1.51
    bond_coeff 188 harmonic 317.0 1.51
    bond_coeff 189 harmonic 317.0 1.51
    bond_coeff 190 harmonic 317.0 1.51
    bond_coeff 191 harmonic 317.0 1.51
    bond_coeff 192 harmonic 317.0 1.51
    bond_coeff 193 harmonic 317.0 1.51
    bond_coeff 194 harmonic 317.0 1.51
    bond_coeff 195 harmonic 317.0 1.51
    bond_coeff 196 harmonic 317.0 1.51
    bond_coeff 197 harmonic 317.0 1.51
    bond_coeff 198 harmonic 337.0 1.475
    bond_coeff 199 harmonic 337.0 1.475
    bond_coeff 200 harmonic 337.0 1.475
    bond_coeff 201 harmonic 337.0 1.475
    bond_coeff 202 harmonic 337.0 1.475
    bond_coeff 203 harmonic 337.0 1.475
    bond_coeff 204 harmonic 337.0 1.475
    bond_coeff 205 harmonic 337.0 1.475
    bond_coeff 206 harmonic 317.0 1.51
    bond_coeff 207 harmonic 317.0 1.51
    bond_coeff 208 harmonic 317.0 1.51
    bond_coeff 209 harmonic 317.0 1.51
    bond_coeff 210 harmonic 317.0 1.51
    bond_coeff 211 harmonic 317.0 1.51
    bond_coeff 212 harmonic 317.0 1.51
    bond_coeff 213 harmonic 317.0 1.51
    bond_coeff 214 harmonic 317.0 1.504
    bond_coeff 215 harmonic 317.0 1.504
    bond_coeff 216 harmonic 317.0 1.504
    bond_coeff 217 harmonic 317.0 1.504
    bond_coeff 218 harmonic 317.0 1.504
    bond_coeff 219 harmonic 317.0 1.504
    bond_coeff 220 harmonic 317.0 1.504
    bond_coeff 221 harmonic 317.0 1.504
    bond_coeff 222 harmonic 317.0 1.495
    bond_coeff 223 harmonic 317.0 1.495
    bond_coeff 224 harmonic 317.0 1.495
    bond_coeff 225 harmonic 317.0 1.495
    bond_coeff 226 harmonic 317.0 1.495
    bond_coeff 227 harmonic 317.0 1.495
    bond_coeff 228 harmonic 317.0 1.495
    bond_coeff 229 harmonic 317.0 1.495
    bond_coeff 230 harmonic 166.0 2.038
    bond_coeff 231 harmonic 166.0 2.038
    bond_coeff 232 harmonic 166.0 2.038
    bond_coeff 233 harmonic 166.0 2.038
    bond_coeff 234 harmonic 250.0 1.76
    bond_coeff 235 harmonic 250.0 1.76
    bond_coeff 236 harmonic 250.0 1.76
    bond_coeff 237 harmonic 250.0 1.76
    bond_coeff 238 harmonic 250.0 1.76
    bond_coeff 239 harmonic 250.0 1.76
    bond_coeff 240 harmonic 250.0 1.76
    bond_coeff 241 harmonic 250.0 1.76
    bond_coeff 242 harmonic 250.0 1.76
    bond_coeff 243 harmonic 250.0 1.76
    bond_coeff 244 harmonic 250.0 1.76
    bond_coeff 245 harmonic 250.0 1.76
    bond_coeff 246 harmonic 250.0 1.76
    bond_coeff 247 harmonic 250.0 1.76
    bond_coeff 248 harmonic 250.0 1.76
    bond_coeff 249 harmonic 250.0 1.76
    bond_coeff 250 harmonic 250.0 1.74
    bond_coeff 251 harmonic 250.0 1.74
    bond_coeff 252 harmonic 250.0 1.47
    bond_coeff 253 harmonic 250.0 1.47
    bond_coeff 254 harmonic 250.0 1.47
    bond_coeff 255 harmonic 250.0 1.47
    bond_coeff 256 harmonic 450.0 1.37
    bond_coeff 257 harmonic 450.0 1.37
    bond_coeff 258 harmonic 450.0 1.364
    bond_coeff 259 harmonic 450.0 1.364
    bond_coeff 260 harmonic 450.0 1.364
    bond_coeff 261 harmonic 450.0 1.364
    bond_coeff 262 harmonic 450.0 1.364
    bond_coeff 263 harmonic 450.0 1.364
    bond_coeff 264 harmonic 450.0 1.364
    bond_coeff 265 harmonic 450.0 1.364
    bond_coeff 266 harmonic 450.0 1.364
    bond_coeff 267 harmonic 450.0 1.364
    bond_coeff 268 harmonic 450.0 1.364
    bond_coeff 269 harmonic 450.0 1.364
    bond_coeff 270 harmonic 450.0 1.364
    bond_coeff 271 harmonic 450.0 1.364
    bond_coeff 272 harmonic 340.0 1.36
    bond_coeff 273 harmonic 340.0 1.36
    bond_coeff 274 harmonic 340.0 1.36
    bond_coeff 275 harmonic 340.0 1.36
    bond_coeff 276 harmonic 434.0 1.01
    bond_coeff 277 harmonic 340.0 1.08
    bond_coeff 278 harmonic 340.0 1.08
    bond_coeff 279 harmonic 549.0 1.34
    bond_coeff 280 harmonic 427.0 1.433
    bond_coeff 281 harmonic 427.0 1.433
    bond_coeff 282 harmonic 427.0 1.433
    bond_coeff 283 harmonic 427.0 1.433
    bond_coeff 284 harmonic 427.0 1.433
    bond_coeff 285 harmonic 427.0 1.433
    bond_coeff 286 harmonic 427.0 1.433
    bond_coeff 287 harmonic 448.0 1.365
    bond_coeff 288 harmonic 469.0 1.4
    bond_coeff 289 harmonic 469.0 1.4
    bond_coeff 290 harmonic 469.0 1.4
    bond_coeff 291 harmonic 469.0 1.4
    bond_coeff 292 harmonic 469.0 1.4
    bond_coeff 293 harmonic 469.0 1.4
    bond_coeff 294 harmonic 469.0 1.4
    bond_coeff 295 harmonic 469.0 1.4
    bond_coeff 296 harmonic 469.0 1.4
    bond_coeff 297 harmonic 469.0 1.4
    bond_coeff 298 harmonic 469.0 1.4
    bond_coeff 299 harmonic 469.0 1.4
    bond_coeff 300 harmonic 469.0 1.4
    bond_coeff 301 harmonic 469.0 1.4
    bond_coeff 302 harmonic 469.0 1.4
    bond_coeff 303 harmonic 469.0 1.4
    bond_coeff 304 harmonic 469.0 1.4
    bond_coeff 305 harmonic 469.0 1.4
    bond_coeff 306 harmonic 469.0 1.4
    bond_coeff 307 harmonic 469.0 1.4
    bond_coeff 308 harmonic 469.0 1.4
    bond_coeff 309 harmonic 469.0 1.4
    bond_coeff 310 harmonic 469.0 1.4
    bond_coeff 311 harmonic 469.0 1.4
    bond_coeff 312 harmonic 469.0 1.4
    bond_coeff 313 harmonic 469.0 1.4
    bond_coeff 314 harmonic 469.0 1.4
    bond_coeff 315 harmonic 469.0 1.4
    bond_coeff 316 harmonic 469.0 1.4
    bond_coeff 317 harmonic 469.0 1.4
    bond_coeff 318 harmonic 469.0 1.4
    bond_coeff 319 harmonic 469.0 1.4
    bond_coeff 320 harmonic 469.0 1.4
    bond_coeff 321 harmonic 469.0 1.4
    bond_coeff 322 harmonic 469.0 1.4
    bond_coeff 323 harmonic 469.0 1.4
    bond_coeff 324 harmonic 469.0 1.4
    bond_coeff 325 harmonic 469.0 1.4
    bond_coeff 326 harmonic 469.0 1.4
    bond_coeff 327 harmonic 469.0 1.4
    bond_coeff 328 harmonic 469.0 1.4
    bond_coeff 329 harmonic 469.0 1.4
    bond_coeff 330 harmonic 469.0 1.4
    bond_coeff 331 harmonic 469.0 1.4
    bond_coeff 332 harmonic 469.0 1.4
    bond_coeff 333 harmonic 469.0 1.4
    bond_coeff 334 harmonic 469.0 1.4
    bond_coeff 335 harmonic 469.0 1.4
    bond_coeff 336 harmonic 469.0 1.4
    bond_coeff 337 harmonic 367.0 1.08
    bond_coeff 338 harmonic 367.0 1.08
    bond_coeff 339 harmonic 367.0 1.08
    bond_coeff 340 harmonic 367.0 1.08
    bond_coeff 341 harmonic 367.0 1.08
    bond_coeff 342 harmonic 367.0 1.08
    bond_coeff 343 harmonic 367.0 1.08
    bond_coeff 344 harmonic 367.0 1.08
    bond_coeff 345 harmonic 367.0 1.08
    bond_coeff 346 harmonic 367.0 1.08
    bond_coeff 347 harmonic 367.0 1.08
    bond_coeff 348 harmonic 367.0 1.08
    bond_coeff 349 harmonic 367.0 1.08
    bond_coeff 350 harmonic 367.0 1.08
    bond_coeff 351 harmonic 367.0 1.08
    bond_coeff 352 harmonic 367.0 1.08
    bond_coeff 353 harmonic 367.0 1.08
    bond_coeff 354 harmonic 367.0 1.08
    bond_coeff 355 harmonic 367.0 1.08
    bond_coeff 356 harmonic 367.0 1.08
    bond_coeff 357 harmonic 367.0 1.08
    bond_coeff 358 harmonic 367.0 1.08
    bond_coeff 359 harmonic 367.0 1.08
    bond_coeff 360 harmonic 367.0 1.08
    bond_coeff 361 harmonic 367.0 1.08
    bond_coeff 362 harmonic 367.0 1.08
    bond_coeff 363 harmonic 367.0 1.08
    bond_coeff 364 harmonic 367.0 1.08
    bond_coeff 365 harmonic 367.0 1.08
    bond_coeff 366 harmonic 367.0 1.08
    bond_coeff 367 harmonic 367.0 1.08
    bond_coeff 368 harmonic 367.0 1.08
    bond_coeff 369 harmonic 367.0 1.08
    bond_coeff 370 harmonic 367.0 1.08
    bond_coeff 371 harmonic 367.0 1.08
    bond_coeff 372 harmonic 367.0 1.08
    bond_coeff 373 harmonic 367.0 1.08
    bond_coeff 374 harmonic 367.0 1.08
    bond_coeff 375 harmonic 367.0 1.08
    bond_coeff 376 harmonic 367.0 1.08
    bond_coeff 377 harmonic 367.0 1.08
    bond_coeff 378 harmonic 367.0 1.08
    bond_coeff 379 harmonic 367.0 1.08
    bond_coeff 380 harmonic 367.0 1.08
    bond_coeff 381 harmonic 367.0 1.08
    bond_coeff 382 harmonic 367.0 1.08
    bond_coeff 383 harmonic 367.0 1.08
    bond_coeff 384 harmonic 367.0 1.08
    bond_coeff 385 harmonic 367.0 1.08
    bond_coeff 386 harmonic 367.0 1.08
    bond_coeff 387 harmonic 367.0 1.08
    bond_coeff 388 harmonic 367.0 1.08
    bond_coeff 389 harmonic 367.0 1.08
    bond_coeff 390 harmonic 367.0 1.08
    bond_coeff 391 harmonic 367.0 1.08
    bond_coeff 392 harmonic 367.0 1.08
    bond_coeff 393 harmonic 427.0 1.381
    bond_coeff 394 harmonic 427.0 1.381
    bond_coeff 395 harmonic 427.0 1.381
    bond_coeff 396 harmonic 427.0 1.381
    bond_coeff 397 harmonic 427.0 1.381
    bond_coeff 398 harmonic 427.0 1.381
    bond_coeff 399 harmonic 427.0 1.381
    bond_coeff 400 harmonic 469.0 1.404
    bond_coeff 401 harmonic 469.0 1.404
    bond_coeff 402 harmonic 469.0 1.404
    bond_coeff 403 harmonic 469.0 1.404
    bond_coeff 404 harmonic 469.0 1.404
    bond_coeff 405 harmonic 469.0 1.404
    bond_coeff 406 harmonic 469.0 1.404
    bond_coeff 407 harmonic 469.0 1.4
    bond_coeff 408 harmonic 469.0 1.4
    bond_coeff 409 harmonic 469.0 1.4
    bond_coeff 410 harmonic 469.0 1.4
    bond_coeff 411 harmonic 469.0 1.4
    bond_coeff 412 harmonic 469.0 1.4
    bond_coeff 413 harmonic 469.0 1.4
    bond_coeff 414 harmonic 546.0 1.367
    bond_coeff 415 harmonic 546.0 1.367
    bond_coeff 416 harmonic 546.0 1.367
    bond_coeff 417 harmonic 546.0 1.367
    bond_coeff 418 harmonic 546.0 1.367
    bond_coeff 419 harmonic 546.0 1.367
    bond_coeff 420 harmonic 546.0 1.367
    bond_coeff 421 harmonic 367.0 1.08
    bond_coeff 422 harmonic 367.0 1.08
    bond_coeff 423 harmonic 367.0 1.08
    bond_coeff 424 harmonic 367.0 1.08
    bond_coeff 425 harmonic 367.0 1.08
    bond_coeff 426 harmonic 367.0 1.08
    bond_coeff 427 harmonic 367.0 1.08
    bond_coeff 428 harmonic 367.0 1.08
    bond_coeff 429 harmonic 367.0 1.08
    bond_coeff 430 harmonic 367.0 1.08
    bond_coeff 431 harmonic 367.0 1.08
    bond_coeff 432 harmonic 367.0 1.08
    bond_coeff 433 harmonic 367.0 1.08
    bond_coeff 434 harmonic 367.0 1.08
    bond_coeff 435 harmonic 367.0 1.08
    bond_coeff 436 harmonic 367.0 1.08
    bond_coeff 437 harmonic 436.0 1.374
    bond_coeff 438 harmonic 428.0 1.38
    bond_coeff 439 harmonic 427.0 1.381
    bond_coeff 440 harmonic 520.0 1.37
    bond_coeff 441 harmonic 447.0 1.419
    bond_coeff 442 harmonic 469.0 1.424
    bond_coeff 443 harmonic 512.0 1.375
    bond_coeff 444 harmonic 546.0 1.367
    bond_coeff 445 harmonic 469.0 1.424
    angle_coeff 1 harmonic 55.0 108.5
    angle_coeff 2 harmonic 55.0 108.5
    angle_coeff 3 harmonic 55.0 108.5
    angle_coeff 4 harmonic 55.0 108.5
    angle_coeff 5 harmonic 55.0 108.5
    angle_coeff 6 harmonic 55.0 108.5
    angle_coeff 7 harmonic 55.0 108.5
    angle_coeff 8 harmonic 55.0 108.5
    angle_coeff 9 harmonic 35.0 109.0
    angle_coeff 10 harmonic 35.0 113.0
    angle_coeff 11 harmonic 35.0 113.0
    angle_coeff 12 harmonic 35.0 113.0
    angle_coeff 13 harmonic 35.0 113.0
    angle_coeff 14 harmonic 35.0 113.0
    angle_coeff 15 harmonic 35.0 113.0
    angle_coeff 16 harmonic 35.0 113.0
    angle_coeff 17 harmonic 50.0 109.5
    angle_coeff 18 harmonic 50.0 109.5
    angle_coeff 19 harmonic 50.0 109.5
    angle_coeff 20 harmonic 50.0 109.5
    angle_coeff 21 harmonic 50.0 109.5
    angle_coeff 22 harmonic 50.0 109.5
    angle_coeff 23 harmonic 50.0 109.5
    angle_coeff 24 harmonic 50.0 109.5
    angle_coeff 25 harmonic 50.0 109.5
    angle_coeff 26 harmonic 50.0 109.5
    angle_coeff 27 harmonic 50.0 109.5
    angle_coeff 28 harmonic 50.0 109.5
    angle_coeff 29 harmonic 50.0 109.5
    angle_coeff 30 harmonic 50.0 109.5
    angle_coeff 31 harmonic 50.0 109.5
    angle_coeff 32 harmonic 50.0 109.5
    angle_coeff 33 harmonic 50.0 109.5
    angle_coeff 34 harmonic 50.0 109.5
    angle_coeff 35 harmonic 50.0 109.5
    angle_coeff 36 harmonic 50.0 109.5
    angle_coeff 37 harmonic 50.0 109.5
    angle_coeff 38 harmonic 50.0 109.5
    angle_coeff 39 harmonic 50.0 109.5
    angle_coeff 40 harmonic 50.0 109.5
    angle_coeff 41 harmonic 50.0 109.5
    angle_coeff 42 harmonic 50.0 109.5
    angle_coeff 43 harmonic 50.0 109.5
    angle_coeff 44 harmonic 50.0 109.5
    angle_coeff 45 harmonic 50.0 109.5
    angle_coeff 46 harmonic 50.0 109.5
    angle_coeff 47 harmonic 50.0 109.5
    angle_coeff 48 harmonic 50.0 109.5
    angle_coeff 49 harmonic 50.0 109.5
    angle_coeff 50 harmonic 50.0 109.5
    angle_coeff 51 harmonic 50.0 109.5
    angle_coeff 52 harmonic 50.0 109.5
    angle_coeff 53 harmonic 50.0 109.5
    angle_coeff 54 harmonic 50.0 109.5
    angle_coeff 55 harmonic 50.0 109.5
    angle_coeff 56 harmonic 50.0 109.5
    angle_coeff 57 harmonic 50.0 109.5
    angle_coeff 58 harmonic 50.0 109.5
    angle_coeff 59 harmonic 50.0 109.5
    angle_coeff 60 harmonic 50.0 109.5
    angle_coeff 61 harmonic 50.0 109.5
    angle_coeff 62 harmonic 50.0 109.5
    angle_coeff 63 harmonic 50.0 109.5
    angle_coeff 64 harmonic 50.0 109.5
    angle_coeff 65 harmonic 50.0 109.5
    angle_coeff 66 harmonic 50.0 109.5
    angle_coeff 67 harmonic 50.0 109.5
    angle_coeff 68 harmonic 50.0 109.5
    angle_coeff 69 harmonic 50.0 109.5
    angle_coeff 70 harmonic 50.0 109.5
    angle_coeff 71 harmonic 50.0 109.5
    angle_coeff 72 harmonic 50.0 109.5
    angle_coeff 73 harmonic 50.0 109.5
    angle_coeff 74 harmonic 50.0 109.5
    angle_coeff 75 harmonic 50.0 109.5
    angle_coeff 76 harmonic 50.0 109.5
    angle_coeff 77 harmonic 50.0 109.5
    angle_coeff 78 harmonic 50.0 109.5
    angle_coeff 79 harmonic 50.0 109.5
    angle_coeff 80 harmonic 50.0 109.5
    angle_coeff 81 harmonic 58.35 112.7
    angle_coeff 82 harmonic 58.35 112.7
    angle_coeff 83 harmonic 58.35 112.7
    angle_coeff 84 harmonic 58.35 112.7
    angle_coeff 85 harmonic 58.35 112.7
    angle_coeff 86 harmonic 58.35 112.7
    angle_coeff 87 harmonic 58.35 112.7
    angle_coeff 88 harmonic 58.35 112.7
    angle_coeff 89 harmonic 58.35 112.7
    angle_coeff 90 harmonic 58.35 112.7
    angle_coeff 91 harmonic 58.35 112.7
    angle_coeff 92 harmonic 58.35 112.7
    angle_coeff 93 harmonic 58.35 112.7
    angle_coeff 94 harmonic 58.35 112.7
    angle_coeff 95 harmonic 58.35 112.7
    angle_coeff 96 harmonic 58.35 112.7
    angle_coeff 97 harmonic 58.35 112.7
    angle_coeff 98 harmonic 58.35 112.7
    angle_coeff 99 harmonic 58.35 112.7
    angle_coeff 100 harmonic 58.35 112.7
    angle_coeff 101 harmonic 58.35 112.7
    angle_coeff 102 harmonic 58.35 112.7
    angle_coeff 103 harmonic 58.35 112.7
    angle_coeff 104 harmonic 58.35 112.7
    angle_coeff 105 harmonic 58.35 112.7
    angle_coeff 106 harmonic 58.35 112.7
    angle_coeff 107 harmonic 58.35 112.7
    angle_coeff 108 harmonic 58.35 112.7
    angle_coeff 109 harmonic 58.35 112.7
    angle_coeff 110 harmonic 58.35 112.7
    angle_coeff 111 harmonic 58.35 112.7
    angle_coeff 112 harmonic 58.35 112.7
    angle_coeff 113 harmonic 58.35 112.7
    angle_coeff 114 harmonic 58.35 112.7
    angle_coeff 115 harmonic 58.35 112.7
    angle_coeff 116 harmonic 58.35 112.7
    angle_coeff 117 harmonic 58.35 112.7
    angle_coeff 118 harmonic 58.35 112.7
    angle_coeff 119 harmonic 58.35 112.7
    angle_coeff 120 harmonic 58.35 112.7
    angle_coeff 121 harmonic 58.35 112.7
    angle_coeff 122 harmonic 58.35 112.7
    angle_coeff 123 harmonic 58.35 112.7
    angle_coeff 124 harmonic 58.35 112.7
    angle_coeff 125 harmonic 58.35 112.7
    angle_coeff 126 harmonic 58.35 112.7
    angle_coeff 127 harmonic 58.35 112.7
    angle_coeff 128 harmonic 58.35 112.7
    angle_coeff 129 harmonic 58.35 112.7
    angle_coeff 130 harmonic 58.35 112.7
    angle_coeff 131 harmonic 58.35 112.7
    angle_coeff 132 harmonic 58.35 112.7
    angle_coeff 133 harmonic 58.35 112.7
    angle_coeff 134 harmonic 58.35 112.7
    angle_coeff 135 harmonic 58.35 112.7
    angle_coeff 136 harmonic 58.35 112.7
    angle_coeff 137 harmonic 58.35 112.7
    angle_coeff 138 harmonic 58.35 112.7
    angle_coeff 139 harmonic 58.35 112.7
    angle_coeff 140 harmonic 58.35 112.7
    angle_coeff 141 harmonic 58.35 112.7
    angle_coeff 142 harmonic 58.35 112.7
    angle_coeff 143 harmonic 58.35 112.7
    angle_coeff 144 harmonic 58.35 112.7
    angle_coeff 145 harmonic 58.35 112.7
    angle_coeff 146 harmonic 58.35 112.7
    angle_coeff 147 harmonic 58.35 112.7
    angle_coeff 148 harmonic 58.35 112.7
    angle_coeff 149 harmonic 58.35 112.7
    angle_coeff 150 harmonic 58.35 112.7
    angle_coeff 151 harmonic 58.35 112.7
    angle_coeff 152 harmonic 58.35 112.7
    angle_coeff 153 harmonic 58.35 112.7
    angle_coeff 154 harmonic 58.35 112.7
    angle_coeff 155 harmonic 58.35 112.7
    angle_coeff 156 harmonic 58.35 112.7
    angle_coeff 157 harmonic 58.35 112.7
    angle_coeff 158 harmonic 58.35 112.7
    angle_coeff 159 harmonic 58.35 112.7
    angle_coeff 160 harmonic 58.35 112.7
    angle_coeff 161 harmonic 58.35 112.7
    angle_coeff 162 harmonic 58.35 112.7
    angle_coeff 163 harmonic 58.35 112.7
    angle_coeff 164 harmonic 58.35 112.7
    angle_coeff 165 harmonic 58.35 112.7
    angle_coeff 166 harmonic 58.35 112.7
    angle_coeff 167 harmonic 58.35 112.7
    angle_coeff 168 harmonic 58.35 112.7
    angle_coeff 169 harmonic 58.35 112.7
    angle_coeff 170 harmonic 58.35 112.7
    angle_coeff 171 harmonic 58.35 112.7
    angle_coeff 172 harmonic 58.35 112.7
    angle_coeff 173 harmonic 58.35 112.7
    angle_coeff 174 harmonic 58.35 112.7
    angle_coeff 175 harmonic 58.35 112.7
    angle_coeff 176 harmonic 58.35 112.7
    angle_coeff 177 harmonic 58.35 112.7
    angle_coeff 178 harmonic 58.35 112.7
    angle_coeff 179 harmonic 58.35 112.7
    angle_coeff 180 harmonic 58.35 112.7
    angle_coeff 181 harmonic 58.35 112.7
    angle_coeff 182 harmonic 58.35 112.7
    angle_coeff 183 harmonic 58.35 112.7
    angle_coeff 184 harmonic 58.35 112.7
    angle_coeff 185 harmonic 58.35 112.7
    angle_coeff 186 harmonic 58.35 112.7
    angle_coeff 187 harmonic 58.35 112.7
    angle_coeff 188 harmonic 58.35 112.7
    angle_coeff 189 harmonic 58.35 112.7
    angle_coeff 190 harmonic 58.35 112.7
    angle_coeff 191 harmonic 58.35 112.7
    angle_coeff 192 harmonic 58.35 112.7
    angle_coeff 193 harmonic 58.35 112.7
    angle_coeff 194 harmonic 58.35 112.7
    angle_coeff 195 harmonic 58.35 112.7
    angle_coeff 196 harmonic 58.35 112.7
    angle_coeff 197 harmonic 58.35 112.7
    angle_coeff 198 harmonic 58.35 112.7
    angle_coeff 199 harmonic 58.35 112.7
    angle_coeff 200 harmonic 58.35 112.7
    angle_coeff 201 harmonic 58.35 112.7
    angle_coeff 202 harmonic 58.35 112.7
    angle_coeff 203 harmonic 58.35 112.7
    angle_coeff 204 harmonic 58.35 112.7
    angle_coeff 205 harmonic 58.35 112.7
    angle_coeff 206 harmonic 58.35 112.7
    angle_coeff 207 harmonic 58.35 112.7
    angle_coeff 208 harmonic 58.35 112.7
    angle_coeff 209 harmonic 58.35 112.7
    angle_coeff 210 harmonic 58.35 112.7
    angle_coeff 211 harmonic 58.35 112.7
    angle_coeff 212 harmonic 58.35 112.7
    angle_coeff 213 harmonic 58.35 112.7
    angle_coeff 214 harmonic 58.35 112.7
    angle_coeff 215 harmonic 58.35 112.7
    angle_coeff 216 harmonic 58.35 112.7
    angle_coeff 217 harmonic 58.35 112.7
    angle_coeff 218 harmonic 58.35 112.7
    angle_coeff 219 harmonic 58.35 112.7
    angle_coeff 220 harmonic 58.35 112.7
    angle_coeff 221 harmonic 58.35 112.7
    angle_coeff 222 harmonic 58.35 112.7
    angle_coeff 223 harmonic 58.35 112.7
    angle_coeff 224 harmonic 58.35 112.7
    angle_coeff 225 harmonic 58.35 112.7
    angle_coeff 226 harmonic 58.35 112.7
    angle_coeff 227 harmonic 58.35 112.7
    angle_coeff 228 harmonic 58.35 112.7
    angle_coeff 229 harmonic 58.35 112.7
    angle_coeff 230 harmonic 58.35 112.7
    angle_coeff 231 harmonic 58.35 112.7
    angle_coeff 232 harmonic 58.35 112.7
    angle_coeff 233 harmonic 58.35 112.7
    angle_coeff 234 harmonic 58.35 112.7
    angle_coeff 235 harmonic 58.35 112.7
    angle_coeff 236 harmonic 58.35 112.7
    angle_coeff 237 harmonic 58.35 112.7
    angle_coeff 238 harmonic 58.35 112.7
    angle_coeff 239 harmonic 58.35 112.7
    angle_coeff 240 harmonic 58.35 112.7
    angle_coeff 241 harmonic 58.35 112.7
    angle_coeff 242 harmonic 58.35 112.7
    angle_coeff 243 harmonic 58.35 112.7
    angle_coeff 244 harmonic 58.35 112.7
    angle_coeff 245 harmonic 58.35 112.7
    angle_coeff 246 harmonic 58.35 112.7
    angle_coeff 247 harmonic 58.35 112.7
    angle_coeff 248 harmonic 58.35 112.7
    angle_coeff 249 harmonic 58.35 112.7
    angle_coeff 250 harmonic 58.35 112.7
    angle_coeff 251 harmonic 58.35 112.7
    angle_coeff 252 harmonic 58.35 112.7
    angle_coeff 253 harmonic 58.35 112.7
    angle_coeff 254 harmonic 58.35 112.7
    angle_coeff 255 harmonic 58.35 112.7
    angle_coeff 256 harmonic 58.35 112.7
    angle_coeff 257 harmonic 58.35 112.7
    angle_coeff 258 harmonic 58.35 112.7
    angle_coeff 259 harmonic 58.35 112.7
    angle_coeff 260 harmonic 58.35 112.7
    angle_coeff 261 harmonic 58.35 112.7
    angle_coeff 262 harmonic 58.35 112.7
    angle_coeff 263 harmonic 58.35 112.7
    angle_coeff 264 harmonic 58.35 112.7
    angle_coeff 265 harmonic 58.35 112.7
    angle_coeff 266 harmonic 58.35 112.7
    angle_coeff 267 harmonic 58.35 112.7
    angle_coeff 268 harmonic 58.35 112.7
    angle_coeff 269 harmonic 58.35 112.7
    angle_coeff 270 harmonic 58.35 112.7
    angle_coeff 271 harmonic 58.35 112.7
    angle_coeff 272 harmonic 58.35 112.7
    angle_coeff 273 harmonic 58.35 112.7
    angle_coeff 274 harmonic 58.35 112.7
    angle_coeff 275 harmonic 58.35 112.7
    angle_coeff 276 harmonic 58.35 112.7
    angle_coeff 277 harmonic 58.35 112.7
    angle_coeff 278 harmonic 58.35 112.7
    angle_coeff 279 harmonic 58.35 112.7
    angle_coeff 280 harmonic 58.35 112.7
    angle_coeff 281 harmonic 58.35 112.7
    angle_coeff 282 harmonic 58.35 112.7
    angle_coeff 283 harmonic 58.35 112.7
    angle_coeff 284 harmonic 58.35 112.7